c ---- [ banner ] ------------------------------------------------------------
c
c KISSAT SAT Solver
c Copyright (c) 2019-2020 Armin Biere JKU Linz
c 
c Version 1.0.3 e2cf52acbdafcc2c864431286f39bcb0e0d2eb04
c gcc (Ubuntu 9.4.0-1ubuntu1~20.04.1) 9.4.0 -g -W -Wall -O3 -DNEMBEDDED -DNDEBUG -DNMETRICS -DNSTATISTICS
c Wed Apr 26 17:06:22 IST 2023 Linux Karthikeya 5.15.0-69-generic x86_64
c
c ---- [ parsing ] -----------------------------------------------------------
c
c opened and reading DIMACS file:
c 
c   ../../../benchmark_instances_2022/a2bdae1f9d9695e8cf80cfbbd5f7d61f-PancakeVsSelectionSort_8_4.cnf
c 
c parsed 'p cnf 4883 17417' header
c closing input after reading 282012 bytes (275 KB)
c finished parsing after 0.01 seconds
c
c ---- [ solving ] -----------------------------------------------------------
c
c  seconds reductions redundant irredundant
c         MB   restarts    trail     variables
c          level  conflicts   glue        remaining
c
c *  0.01  3 0  0  0   0   0 0% 0 16121 4301 88%
c {  0.01  3 0  0  0   0   0 0% 0 16121 4301 88%
c -  0.01  5 66  1  1 303 192 16% 6 16053 4301 88%
c i  0.02  5 53  1  1 432 309 21% 6 16053 4299 88%
c i  0.03  5 46  1 18 646 510 31% 6 16053 4297 88%
c i  0.04  5 44  1 68 752 613 32% 6 16053 4295 88%
c -  0.05  5 40  2 106 906 591 35% 6 16034 4295 88%
c }  0.06  5 39  2 131 1001 674 38% 6 16034 4295 88%
c [  0.06  5 0  2 131 1001 674 0% 0 16034 4295 88%
c O  0.06  5 69  2 131 1002 675 77% 13 16031 4295 88%
c i  0.07  6 71  2 131 1191 847 63% 10 16031 4293 88%
c d  0.08  6 56  2 131 1602 1192 58% 12 15135 3847 79%
c d  0.09  6 56  2 131 1602 1192 58% 12 15110 3836 79%
c 3  0.09  6 56  2 131 1602 4455 58% 12 15110 3836 79%
c t  0.09  6 56  2 131 1602 4453 58% 12 14866 3830 78%
c f  0.10  6 56  2 131 1602 11709 58% 12 14866 3760 77%
c f  0.10  6 56  2 131 1602 12592 58% 12 14828 3757 77%
c u  0.11  6 56  2 131 1602 12448 58% 12 14828 3757 77%
c v  0.12  6 56  2 131 1602 12172 58% 12 14828 3757 77%
c w  0.12  6 56  2 131 1602 12172 58% 12 14825 3757 77%
c
c  seconds  reductions    redundant   irredundant
c         MB    restarts         trail      variables
c          level    conflicts        glue        remaining
c
c d  0.12  6 56  2 131 1602 11989 58% 12 14492 3545 73%
c d  0.12  6 56  2 131 1602 11983 58% 12 14480 3539 72%
c i  0.12  6 56  2 131 1602 11983 58% 12 14480 3539 72%
c ]  0.14  6 50  2 131 1793 12160 55% 14 14480 3539 72%
c {  0.14  6 39  2 131 1793 12160 38% 6 14480 3539 72%
c -  0.14  6 39  3 136 1806 3335 38% 6 14264 3539 72%
c I  0.20  7 34  3 378 3003 4442 48% 7 14264 3539 72%
c -  0.20  7 34  4 379 3006 2526 48% 7 14264 3539 72%
c }  0.23  8 34  4 481 3793 3237 48% 8 14264 3539 72%
c [  0.23  8 50  4 481 3793 3237 55% 14 14264 3539 72%
c -  0.26  8 37  5 481 4506 2201 68% 12 14264 3539 72%
c d  0.27  8 36  5 481 4802 2478 73% 12 14242 3528 72%
c 3  0.28  8 36  5 481 4802 5819 73% 12 14242 3528 72%
c t  0.28  8 36  5 481 4802 5581 73% 12 14121 3528 72%
c f  0.29  8 36  5 481 4802 10970 73% 12 14121 3528 72%
c u  0.30  8 36  5 481 4802 10619 73% 12 14121 3528 72%
c v  0.31  8 36  5 481 4802 10294 73% 12 14121 3528 72%
c w  0.32  8 36  5 481 4802 10295 73% 12 14118 3528 72%
c d  0.32  8 36  5 481 4802 10214 73% 12 14078 3476 71%
c B  0.40  8 44  5 483 6004 11363 77% 14 14078 3476 71%
c
c  seconds  reductions   redundant   irredundant
c         MB    restarts        trail      variables
c          level    conflicts       glue        remaining
c
c -  0.42  8 45  6 483 6307 5018 79% 15 14078 3476 71%
c ]  0.45  7 45  6 483 6985 5658 81% 16 14078 3476 71%
c {  0.45  7 34  6 483 6985 5658 48% 8 14078 3476 71%
c 2  0.51  9 33  6 598 8002 6644 55% 8 14057 3476 71%
c s  0.51  9 33  6 598 8002 6644 55% 8 14038 3476 71%
c e  0.53 10 33  6 598 8002 6644 55% 8 9515 1302 27%
c s  0.53 10 33  6 598 8002 6644 55% 8 9512 1302 27%
c e  0.53 10 33  6 598 8002 6644 55% 8 9484 1295 27%
c -  0.55 10 33  7 619 8408 946 56% 8 9484 1295 27%
c d  0.58 10 33  7 710 9603 2075 58% 8 9481 1294 26%
c 3  0.58 10 33  7 710 9603 3555 58% 8 9481 1294 26%
c t  0.58 10 33  7 710 9603 3505 58% 8 9427 1294 26%
c f  0.59 10 33  7 710 9603 4484 58% 8 9427 1294 26%
c u  0.60 10 33  7 710 9603 4244 58% 8 9427 1294 26%
c v  0.60 10 33  7 710 9603 4019 58% 8 9427 1294 26%
c w  0.61 10 33  7 710 9603 4019 58% 8 9423 1294 26%
c d  0.61 10 33  7 710 9603 4019 58% 8 9420 1293 26%
c W  0.65 10 33  7 759 10005 4405 58% 8 9420 1293 26%
c -  0.68 10 33  8 914 10808 2335 58% 8 9420 1293 26%
c }  0.72 10 33  8 1028 11988 3449 56% 8 9420 1293 26%
c
c  seconds  reductions     redundant  irredundant
c         MB     restarts         trail     variables
c          level      conflicts       glue       remaining
c
c [  0.72 10 45  8 1028 11988 3449 81% 16 9420 1293 26%
c 3  0.76 10 50  8 1029 13204 5813 76% 18 9420 1293 26%
c t  0.76 10 50  8 1029 13204 5773 76% 18 9414 1293 26%
c f  0.76 10 50  8 1029 13204 6669 76% 18 9414 1293 26%
c u  0.78 10 50  8 1029 13204 6412 76% 18 9414 1293 26%
c v  0.78 10 50  8 1029 13204 6269 76% 18 9414 1293 26%
c w  0.79 10 50  8 1029 13204 6269 76% 18 9414 1293 26%
c -  0.80  9 50  9 1029 13510 2743 76% 18 9414 1293 26%
c O  0.85 10 49  9 1030 15006 4167 75% 19 9414 1293 26%
c -  0.91 10 46 10 1031 16511 2871 72% 20 9414 1293 26%
c s  0.93 10 46 10 1031 17003 3320 72% 20 9388 1293 26%
c e  0.93 10 46 10 1031 17003 3320 72% 20 9357 1280 26%
c s  0.93 10 46 10 1031 17003 3320 72% 20 9354 1280 26%
c 3  0.96 10 46 10 1032 17705 5338 71% 20 9354 1280 26%
c t  0.96 10 46 10 1032 17705 5326 71% 20 9347 1280 26%
c f  0.96 10 46 10 1032 17705 6268 71% 20 9347 1280 26%
c u  0.98 10 46 10 1032 17705 5992 71% 20 9347 1280 26%
c v  0.99 10 46 10 1032 17705 5791 71% 20 9347 1280 26%
c w  1.00 10 46 10 1032 17705 5791 71% 20 9335 1280 26%
c d  1.00 10 46 10 1032 17705 5791 71% 20 9327 1279 26%
c
c  seconds  reductions     redundant  irredundant
c         MB     restarts         trail     variables
c          level      conflicts       glue       remaining
c
c -  1.08 10 47 11 1033 19813 3051 73% 20 9327 1279 26%
c ]  1.09 10 47 11 1033 19992 3218 73% 20 9327 1279 26%
c {  1.09 10 33 11 1033 19992 3218 56% 8 9327 1279 26%
c B  1.12 11 34 11 1150 21007 4185 56% 8 9327 1279 26%
c 3  1.20 13 34 11 1377 23105 7696 57% 9 9327 1279 26%
c t  1.20 13 34 11 1377 23105 7649 57% 9 9322 1279 26%
c f  1.20 13 34 11 1377 23105 8455 57% 9 9322 1279 26%
c u  1.22 12 34 11 1377 23105 8316 57% 9 9322 1279 26%
c v  1.22 12 34 11 1377 23105 8186 57% 9 9322 1279 26%
c w  1.22 12 34 11 1377 23105 8186 57% 9 9162 1279 26%
c -  1.24 13 34 12 1415 23413 4073 57% 9 9162 1279 26%
c -  1.40 17 33 13 1776 27314 5660 58% 9 9162 1279 26%
c W  1.46 17 33 13 1838 28009 6317 59% 9 9162 1279 26%
c d  1.52 17 33 13 2042 29405 7627 58% 9 9160 1278 26%
c 3  1.52 17 33 13 2042 29405 9338 58% 9 9160 1278 26%
c t  1.52 17 33 13 2042 29405 9329 58% 9 9142 1278 26%
c f  1.52 17 33 13 2042 29405 10291 58% 9 9142 1278 26%
c u  1.54 17 33 13 2042 29405 10037 58% 9 9142 1278 26%
c v  1.54 17 33 13 2042 29405 9957 58% 9 9142 1278 26%
c w  1.55 17 33 13 2042 29405 9957 58% 9 9138 1278 26%
c
c  seconds  reductions      redundant irredundant
c         MB     restarts          trail    variables
c          level      conflicts       glue       remaining
c
c }  1.58 17 33 13 2117 29992 10500 58% 9 9138 1278 26%
c [  1.58 17 47 13 2117 29992 10500 73% 20 9138 1278 26%
c s  1.60 17 46 13 2117 30504 10991 73% 20 9127 1278 26%
c e  1.60 16 46 13 2117 30504 10991 73% 20 9115 1258 26%
c ^  1.60 16 46 13 2117 30504 10991 73% 20 9115 1258 26%
c -  1.64 17 47 14 2118 31514 6684 74% 20 9115 1258 26%
c I  1.83 17 47 14 2121 36013 11031 75% 22 9115 1258 26%
c -  1.84 17 47 15 2121 36014 6470 75% 22 9115 1258 26%
c d  1.86 17 47 15 2122 36605 7028 75% 22 9111 1257 26%
c 3  1.87 17 47 15 2122 36605 8669 75% 22 9111 1257 26%
c t  1.87 17 47 15 2122 36605 8638 75% 22 9108 1257 26%
c f  1.87 17 47 15 2122 36605 9483 75% 22 9108 1257 26%
c u  1.89 18 47 15 2122 36605 9277 75% 22 9108 1257 26%
c v  1.90 17 47 15 2122 36605 9112 75% 22 9108 1257 26%
c w  1.90 17 47 15 2122 36605 9112 75% 22 9092 1257 26%
c -  2.08 17 46 16 2123 40814 6391 75% 22 9092 1257 26%
c ]  2.19 17 45 16 2125 43565 9012 74% 22 9092 1257 26%
c {  2.19 17 33 16 2125 43565 9012 58% 9 9092 1257 26%
c 3  2.27 17 33 16 2292 44705 11530 58% 9 9092 1257 26%
c t  2.27 17 33 16 2292 44705 11500 58% 9 9085 1257 26%
c
c  seconds  reductions      redundant irredundant
c         MB     restarts          trail    variables
c          level      conflicts       glue       remaining
c
c f  2.28 17 33 16 2292 44705 12300 58% 9 9085 1257 26%
c u  2.30 17 33 16 2292 44705 12154 58% 9 9085 1257 26%
c v  2.31 17 33 16 2292 44705 11978 58% 9 9085 1257 26%
c w  2.31 17 33 16 2292 44705 11978 58% 9 9071 1257 26%
c B  2.33 17 33 16 2313 45014 12271 58% 9 9071 1257 26%
c -  2.38 18 33 17 2421 45915 7205 58% 9 9071 1257 26%
c i  2.43 17 30 17 2421 48219 9016 54% 8 9071 1256 26%
c s  2.45 17 31 17 2473 48507 9289 54% 9 9055 1256 26%
c e  2.46 17 31 17 2473 48507 9289 54% 9 9161 1062 22%
c s  2.46 17 31 17 2473 48507 9289 54% 9 9160 1062 22%
c -  2.59 18 31 18 2966 51315 7841 54% 9 9160 1062 22%
c 3  2.71 17 32 18 3477 53706 11785 55% 9 9160 1062 22%
c t  2.71 17 32 18 3477 53706 11782 55% 9 9151 1062 22%
c f  2.71 17 32 18 3477 53706 12682 55% 9 9151 1062 22%
c u  2.73 17 32 18 3477 53706 12455 55% 9 9151 1062 22%
c v  2.73 17 32 18 3477 53706 12344 55% 9 9151 1062 22%
c w  2.73 17 32 18 3477 53706 12345 55% 9 9130 1062 22%
c W  2.81 17 32 18 3596 55015 13562 54% 9 9130 1062 22%
c -  2.90 17 32 19 3925 57015 10433 55% 9 9130 1062 22%
c }  3.07 17 33 19 4474 60567 13823 55% 9 9130 1062 22%
c
c  seconds  reductions      redundant  irredundant
c         MB     restarts          trail     variables
c          level      conflicts        glue       remaining
c
c [  3.07 17 45 19 4474 60567 13823 74% 22 9130 1062 22%
c -  3.17 18 43 20 4476 63015 11290 72% 21 9130 1062 22%
c 3  3.20 17 43 20 4476 63606 13382 73% 21 9130 1062 22%
c t  3.20 17 43 20 4476 63606 13346 73% 21 9121 1062 22%
c f  3.20 17 43 20 4476 63606 14083 73% 21 9121 1062 22%
c u  3.22 18 43 20 4476 63606 13813 73% 21 9121 1062 22%
c v  3.22 18 43 20 4476 63606 13704 73% 21 9121 1062 22%
c w  3.23 18 43 20 4476 63606 13713 73% 21 9089 1062 22%
c #  3.33 18 42 20 4478 66018 16032 73% 21 9089 1062 22%
c -  3.47 18 42 21 4480 69315 10929 73% 21 9089 1062 22%
c s  3.55 18 42 21 4480 71007 12578 73% 21 9084 1062 22%
c e  3.55 18 42 21 4480 71007 12578 73% 21 9047 1047 21%
c 3  3.71 18 41 21 4482 74406 16976 73% 21 9047 1047 21%
c t  3.71 18 41 21 4482 74406 16969 73% 21 9032 1047 21%
c f  3.71 18 41 21 4482 74406 17717 73% 21 9032 1047 21%
c u  3.73 18 41 21 4482 74406 17580 73% 21 9032 1047 21%
c v  3.73 18 41 21 4482 74406 17413 73% 21 9032 1047 21%
c w  3.74 18 41 21 4482 74406 17413 73% 21 9030 1047 21%
c d  3.74 18 41 21 4482 74406 17412 73% 21 9027 1046 21%
c -  3.80 19 41 22 4483 75915 10174 74% 21 9027 1046 21%
c
c  seconds  reductions      redundant  irredundant
c         MB     restarts          trail     variables
c          level      conflicts        glue       remaining
c
c B  3.87 18 41 22 4484 78021 12174 74% 21 9027 1046 21%
c -  4.06 18 39 23 4487 82816 10134 75% 20 9027 1046 21%
c 3  4.18 18 38 23 4488 86106 15181 75% 20 9027 1046 21%
c t  4.19 18 38 23 4488 86106 15172 75% 20 9026 1046 21%
c f  4.19 18 38 23 4488 86106 15924 75% 20 9026 1046 21%
c u  4.20 18 38 23 4488 86106 15792 75% 20 9026 1046 21%
c v  4.21 18 38 23 4488 86106 15705 75% 20 9026 1046 21%
c w  4.21 19 38 23 4488 86106 15705 75% 20 9025 1046 21%
c -  4.38 19 37 24 4488 90018 10254 75% 20 9025 1046 21%
c B  4.45 18 37 24 4488 91024 11205 76% 20 9025 1046 21%
c ]  4.64 18 36 24 4491 95572 15521 76% 20 9025 1046 21%
c {  4.64 18 33 24 4491 95572 15521 55% 9 9025 1046 21%
c -  4.76 19 33 25 4875 97518 11009 55% 9 9025 1046 21%
c s  4.79 18 33 25 4977 98007 11449 55% 10 9024 1046 21%
c e  4.79 18 33 25 4977 98007 11449 55% 10 9021 1044 21%
c ^  4.79 18 33 25 4977 98007 11449 55% 10 9021 1044 21%
c 3  4.83 18 33 25 5055 98706 13974 56% 10 9021 1044 21%
c t  4.83 18 33 25 5055 98706 13972 56% 10 9020 1044 21%
c f  4.84 19 33 25 5055 98706 14747 56% 10 9020 1044 21%
c u  4.85 19 33 25 5055 98706 14532 56% 10 9020 1044 21%
c
c  seconds  reductions      redundant  irredundant
c         MB     restarts          trail     variables
c          level      conflicts        glue       remaining
c
c v  4.86 19 33 25 5055 98706 14442 56% 10 9020 1044 21%
c w  4.86 19 33 25 5055 98706 14442 56% 10 9017 1044 21%
c F  5.19 26 32 25 5766 105025 20488 56% 10 9017 1044 21%
c -  5.21 26 32 26 5815 105318 14049 56% 10 9017 1044 21%
c caught signal 2 (SIGINT)
c
c ---- [ profiling ] ---------------------------------------------------------
c
c           4.75   86.38 %  search
c           2.48   45.13 %  stable
c           2.27   41.25 %  focused
c           0.74   13.52 %  simplify
c           0.56   10.15 %  probe
c           0.38    6.89 %  vivify
c           0.12    2.14 %  walking
c           0.08    1.40 %  ternary
c           0.06    1.13 %  eliminate
c           0.05    0.97 %  substitute
c           0.04    0.78 %  reduce
c           0.04    0.74 %  failed
c           0.01    0.15 %  transitive
c           0.01    0.10 %  autarky
c           0.01    0.09 %  parse
c =============================================
c           5.50  100.00 %  total
c
c ---- [ statistics ] --------------------------------------------------------
c
c conflicts:                           111126            20209.59 per second
c decisions:                           414235                3.73 per conflict
c propagations:                      21629468          3933577    per second
c reductions:                              26             4274    interval
c rephased:                                14             7938    interval
c restarts:                              6416               17.32 interval
c MAB stats : 17 16 
c
c ---- [ resources ] ---------------------------------------------------------
c
c maximum-resident-set-size:         31784960 bytes         30 MB
c process-time:                             5s               5.50 seconds
c raising signal 2 (SIGINT)
